(set-logic HORN)
(set-info :source |
    Benchmark: C_VC
    Output by Princess (http://www.philipp.ruemmer.org/princess.shtml)
|)
(set-info :status sat)
(declare-heap Heap Addr HeapObject
 defObj
 ((HeapObject 0) (node 0)) (
  (
   (O_Int (getInt Int))
   (O_Addr (getAddr Addr))
   (O_node (getnode node))
   (defObj)
  )
  (
   (node (next Addr) (data Int))
  )
))
(declare-fun inv_main12 (Heap Int Int Int Int Int Addr) Bool)
(declare-fun inv_main15 (Heap Int Int Int Int Int Addr Int) Bool)
(declare-fun inv_main18 (Heap Int Int Int Int Int Addr) Bool)
(declare-fun inv_main21 (Heap Int Int Int Int Addr Addr) Bool)
(declare-fun inv_main22 (Heap Int Int Int Int Addr Addr) Bool)
(declare-fun inv_main28 (Heap Int Int Int Int Addr Addr Int Addr) Bool)
(declare-fun inv_main31 (Heap Int Int Int Int Addr Addr Int Addr Int) Bool)
(declare-fun inv_main34 (Heap Int Int Int Int Addr Addr Int Addr) Bool)
(declare-fun inv_main36 (Heap Int Int Int Int Addr Addr Addr) Bool)
(declare-fun inv_main4 (Heap Int Int) Bool)
(declare-fun inv_main49 (Heap Int Int Addr Int Int Int Addr) Bool)
(declare-fun inv_main52 (Heap Int Int Addr Int Int Int Addr Int) Bool)
(declare-fun inv_main55 (Heap Int Int Addr Int Int Int Addr) Bool)
(declare-fun inv_main58 (Heap Int Int Addr Int Int Addr) Bool)
(declare-fun inv_main61 (Heap Int Int Addr Int Int Addr Addr) Bool)
(declare-fun inv_main62 (Heap Int Int Addr Int Int Addr Addr) Bool)
(declare-fun inv_main63 (Heap Int Int Addr Int Int Addr Addr) Bool)
(declare-fun inv_main66 (Heap Int Int Addr Int Int Addr Addr) Bool)
(declare-fun inv_main68 (Heap Int Int Addr Addr Int) Bool)
(declare-fun inv_main71 (Heap Int Int Addr Addr Int) Bool)
(declare-fun inv_main83 (Heap Int Int Addr Addr Int Addr) Bool)
(declare-fun inv_main87 (Heap Int Int Addr Addr Int Addr Addr) Bool)
(declare-fun inv_main90 (Heap Int Int Addr Addr Int) Bool)
(assert (forall ((var0 Heap)) (or (not (= var0 emptyHeap)) (inv_main4 var0 2 1))))
(assert (forall ((var0 Int) (var1 node) (var2 Int) (var3 Int) (var4 Heap) (var5 Int) (var6 Int) (var7 Int) (var8 Heap) (var9 Int) (var10 Addr)) (or (not (and (inv_main4 var4 var3 var0) (and (not (= nullAddr var10)) (and (and (and (and (and (and (= var8 (newHeap (alloc var4 (O_node var1)))) (= var7 var3)) (= var5 var0)) (= var6 var3)) (= var9 var0)) (= var2 var0)) (= var10 (newAddr (alloc var4 (O_node var1)))))))) (inv_main12 var8 var7 var5 var6 var9 var2 var10))))
(assert (forall ((var0 Int) (var1 Int) (var2 Int) (var3 Int) (var4 Addr) (var5 Addr) (var6 Int) (var7 Heap) (var8 Int) (var9 Int) (var10 Int) (var11 Heap) (var12 Int) (var13 Addr) (var14 Addr) (var15 Addr) (var16 Int) (var17 Addr)) (or (not (and (inv_main34 var11 var10 var0 var16 var12 var17 var5 var3 var15) (and (and (and (and (and (and (and (and (= var7 (write var11 var15 (O_node (node (next (getnode (read var11 var15))) var3)))) (= var9 var10)) (= var2 var0)) (= var6 var16)) (= var8 var12)) (= var14 var17)) (= var4 var5)) (= var1 var3)) (= var13 var15)))) (inv_main36 var7 var9 var2 var6 var8 var14 var4 var13))))
(assert (forall ((var0 Int) (var1 Addr) (var2 Addr) (var3 Addr) (var4 Int) (var5 Addr) (var6 Addr) (var7 Int) (var8 Int) (var9 Heap) (var10 Int) (var11 Addr) (var12 Heap) (var13 Int) (var14 Addr)) (or (not (and (inv_main83 var12 var8 var0 var11 var14 var10 var3) (and (not (= var2 var6)) (and (and (and (and (and (and (and (= var9 var12) (= var7 var8)) (= var4 var0)) (= var1 var11)) (= var5 var14)) (= var13 var10)) (= var6 var3)) (= var2 (next (getnode (read var12 var3)))))))) (inv_main87 var9 var7 var4 var1 var5 var13 var6 var2))))
(assert (forall ((var0 Int) (var1 Int) (var2 Addr) (var3 Addr) (var4 Addr) (var5 Int) (var6 Int) (var7 Heap) (var8 Int) (var9 Int) (var10 Heap) (var11 Int) (var12 Int) (var13 Addr) (var14 Addr) (var15 Addr) (var16 Addr) (var17 Heap) (var18 Addr) (var19 Addr) (var20 Int) (var21 Addr) (var22 Addr) (var23 Addr) (var24 Addr) (var25 Addr)) (or (not (and (inv_main87 var17 var11 var0 var13 var23 var12 var2 var4) (and (not (= var25 var21)) (and (and (and (and (and (and (and (and (and (= var10 var17) (= var1 var11)) (= var5 var0)) (= var18 var13)) (= var16 var23)) (= var20 var12)) (= var19 var2)) (= var24 var4)) (= var15 (next (getnode (read var17 var4))))) (and (and (and (and (and (and (and (and (= var7 (write var10 var24 defObj)) (= var6 var1)) (= var8 var5)) (= var22 var18)) (= var14 var16)) (= var9 var20)) (= var21 var19)) (= var3 var24)) (= var25 var15)))))) (inv_main87 var7 var6 var8 var22 var14 var9 var21 var25))))
(assert (forall ((var0 Int) (var1 Int) (var2 Addr) (var3 Int) (var4 Addr) (var5 Int) (var6 Int) (var7 Int) (var8 Addr) (var9 Int) (var10 Int) (var11 Addr) (var12 Addr) (var13 Addr) (var14 Heap) (var15 Addr) (var16 Heap)) (or (not (and (inv_main63 var14 var10 var0 var12 var7 var6 var13 var4) (and (and (and (and (and (and (and (and (= var16 var14) (= var9 var10)) (= var1 var0)) (= var15 var12)) (= var5 var7)) (= var3 var6)) (= var2 var13)) (= var8 var4)) (= var11 (next (getnode (read var14 var4))))))) (inv_main61 var16 var9 var1 var15 var5 var3 var2 var11))))
(assert (forall ((var0 Int) (var1 Int) (var2 Addr) (var3 Int) (var4 Addr) (var5 Int) (var6 Heap) (var7 Int) (var8 Int) (var9 Int) (var10 Int) (var11 Addr) (var12 Int) (var13 Heap) (var14 Int) (var15 Addr)) (or (not (and (inv_main55 var13 var10 var1 var11 var9 var8 var3 var4) (and (not (= nullAddr var2)) (and (and (and (and (and (and (and (= var6 (write var13 var4 (O_node (node (next (getnode (read var13 var4))) var3)))) (= var7 var10)) (= var0 var1)) (= var2 var11)) (= var12 var9)) (= var14 var8)) (= var5 var3)) (= var15 var4))))) (inv_main61 var6 var7 var0 var2 var12 var14 var15 var2))))
(assert (forall ((var0 Int) (var1 Int) (var2 Heap) (var3 Int) (var4 Addr) (var5 Int) (var6 Addr)) (or (not (and (inv_main21 var2 var1 var0 var5 var3 var6 var4) (not (<= 0 (+ (+ var5 (- 1)) (- 1)))))) (inv_main22 var2 var1 var0 var5 var3 var6 var4))))
(assert (forall ((var0 Int) (var1 Int) (var2 Heap) (var3 Int) (var4 Addr) (var5 Int) (var6 Int)) (or (not (inv_main12 var2 var1 var0 var5 var3 var6 var4)) (inv_main18 (write var2 var4 (O_node (node nullAddr (data (getnode (read var2 var4)))))) var1 var0 var5 var3 var6 var4))))
(assert (forall ((var0 Int) (var1 Int) (var2 Int) (var3 Heap) (var4 Int) (var5 Int) (var6 Addr) (var7 Addr) (var8 Int) (var9 Addr)) (or (not (inv_main31 var3 var2 var0 var8 var4 var9 var6 var5 var7 var1)) (inv_main31 var3 var2 var0 var8 var4 var9 var6 var5 var7 var1))))
(assert (forall ((var0 Int) (var1 Addr) (var2 Int) (var3 Addr) (var4 Int) (var5 Addr) (var6 Int) (var7 node) (var8 Int) (var9 Heap) (var10 Int) (var11 Heap) (var12 Addr) (var13 Int) (var14 Int) (var15 Addr) (var16 Int)) (or (not (and (inv_main21 var9 var8 var0 var14 var10 var15 var5) (and (and (= nullAddr var12) (and (and (and (and (and (and (and (and (= var11 (newHeap (alloc var9 (O_node var7)))) (= var2 var8)) (= var6 var0)) (= var4 var14)) (= var16 var10)) (= var1 var15)) (= var3 var5)) (= var13 var10)) (= var12 (newAddr (alloc var9 (O_node var7)))))) (<= 0 (+ (+ var14 (- 1)) (- 1)))))) (inv_main31 var11 var2 var6 var4 var16 var1 var3 var13 var12 1))))
(assert (forall ((var0 Int) (var1 Int) (var2 Int) (var3 Addr) (var4 Addr) (var5 Heap) (var6 Int) (var7 Int) (var8 Int) (var9 Int) (var10 Int) (var11 Addr) (var12 Addr) (var13 Addr) (var14 Heap) (var15 Addr) (var16 Addr)) (or (not (and (inv_main61 var14 var10 var0 var12 var9 var8 var13 var3) (and (= var15 var11) (and (and (and (and (and (and (and (and (= var5 var14) (= var1 var10)) (= var7 var0)) (= var11 var12)) (= var6 var9)) (= var2 var8)) (= var4 var13)) (= var16 var3)) (= var15 (next (getnode (read var14 var3)))))))) (inv_main62 var5 var1 var7 var11 var6 var2 var4 var16))))
(assert (forall ((var0 Int) (var1 Int) (var2 Int) (var3 Addr) (var4 Int) (var5 Addr) (var6 Heap) (var7 Int) (var8 Int)) (or (not (inv_main52 var6 var2 var1 var3 var0 var8 var4 var5 var7)) (inv_main52 var6 var2 var1 var3 var0 var8 var4 var5 var7))))
(assert (forall ((var0 Int) (var1 Int) (var2 Int) (var3 node) (var4 Int) (var5 Addr) (var6 Addr) (var7 Addr) (var8 Addr) (var9 Int) (var10 Int) (var11 Int) (var12 Addr) (var13 Int) (var14 Heap) (var15 Int) (var16 Int) (var17 Int) (var18 Heap) (var19 Int) (var20 Addr) (var21 Heap) (var22 Int)) (or (not (and (inv_main22 var14 var10 var1 var19 var15 var20 var6) (and (and (= nullAddr var7) (and (and (and (and (and (and (and (= var21 (newHeap (alloc var18 (O_node var3)))) (= var16 var11)) (= var22 var17)) (= var5 var12)) (= var4 3)) (= var9 var17)) (= var0 var17)) (= var7 (newAddr (alloc var18 (O_node var3)))))) (and (and (and (and (and (and (= var18 (write var14 var6 (O_node (node var20 (data (getnode (read var14 var6))))))) (= var11 var10)) (= var17 var1)) (= var2 var19)) (= var13 var15)) (= var12 var20)) (= var8 var6))))) (inv_main52 var21 var16 var22 var5 var4 var9 var0 var7 1))))
(assert (forall ((var0 Int) (var1 Int) (var2 node) (var3 Int) (var4 Addr) (var5 Int) (var6 Int) (var7 Addr) (var8 Int) (var9 Int) (var10 Int) (var11 Addr) (var12 Addr) (var13 Int) (var14 Heap) (var15 Int) (var16 Int) (var17 Int) (var18 Heap) (var19 Heap) (var20 Int) (var21 Addr) (var22 Addr)) (or (not (and (inv_main22 var14 var9 var0 var20 var15 var21 var4) (and (and (not (= nullAddr var12)) (and (and (and (and (and (and (and (= var19 (newHeap (alloc var18 (O_node var2)))) (= var6 var10)) (= var5 var17)) (= var22 var11)) (= var16 3)) (= var3 var17)) (= var8 var17)) (= var12 (newAddr (alloc var18 (O_node var2)))))) (and (and (and (and (and (and (= var18 (write var14 var4 (O_node (node var21 (data (getnode (read var14 var4))))))) (= var10 var9)) (= var17 var0)) (= var1 var20)) (= var13 var15)) (= var11 var21)) (= var7 var4))))) (inv_main49 var19 var6 var5 var22 var16 var3 var8 var12))))
(assert (forall ((var0 Int) (var1 Int) (var2 Int) (var3 Addr) (var4 Int) (var5 Addr) (var6 Heap) (var7 Int)) (or (not (inv_main49 var6 var2 var1 var3 var0 var7 var4 var5)) (inv_main55 (write var6 var5 (O_node (node nullAddr (data (getnode (read var6 var5)))))) var2 var1 var3 var0 var7 var4 var5))))
(assert (forall ((var0 Int) (var1 Int) (var2 Int) (var3 Addr) (var4 Heap) (var5 Addr)) (or (not (and (inv_main68 var4 var1 var0 var3 var5 var2) (= var0 (data (getnode (read var4 var5)))))) (inv_main71 var4 var1 var0 var3 var5 var2))))
(assert (forall ((var0 Int) (var1 Int) (var2 Int) (var3 Addr) (var4 Heap) (var5 Addr)) (or (not (and (inv_main68 var4 var1 var0 var3 var5 var2) (not (= var0 (data (getnode (read var4 var5))))))) (inv_main90 var4 var1 var0 var3 var5 var2))))
(assert (forall ((var0 Int) (var1 Int) (var2 Int) (var3 Int) (var4 Int) (var5 Addr) (var6 Addr) (var7 Heap) (var8 Addr) (var9 Addr) (var10 Addr) (var11 Heap) (var12 Int)) (or (not (and (inv_main71 var7 var2 var1 var5 var9 var4) (and (not (= (+ var3 1) (+ 1 var12))) (and (= var8 var6) (and (and (and (and (and (and (= var11 var7) (= var12 var2)) (= var0 var1)) (= var6 var5)) (= var10 var9)) (= var3 var4)) (= var8 (next (getnode (read var7 var9))))))))) (inv_main90 var11 var12 var0 var6 var8 (+ var3 1)))))
(assert (forall ((var0 Int) (var1 Int) (var2 Addr) (var3 Addr) (var4 Addr) (var5 Addr) (var6 Addr) (var7 Heap) (var8 Int) (var9 Int) (var10 Heap) (var11 Int) (var12 Int) (var13 Int) (var14 Int) (var15 Addr)) (or (not (and (inv_main36 var10 var8 var1 var14 var11 var15 var5 var4) (and (and (and (and (and (and (and (= var7 (write var10 var4 (O_node (node var15 (data (getnode (read var10 var4))))))) (= var12 var8)) (= var13 var1)) (= var9 var14)) (= var0 var11)) (= var2 var15)) (= var6 var5)) (= var3 var4)))) (inv_main21 var7 var12 var13 (+ var9 (- 1)) var0 var3 var6))))
(assert (forall ((var0 Int) (var1 Int) (var2 Int) (var3 Int) (var4 Addr) (var5 Int) (var6 Int) (var7 Heap) (var8 Addr) (var9 Int) (var10 Heap) (var11 Int) (var12 Int) (var13 Int)) (or (not (and (inv_main18 var10 var9 var0 var12 var11 var6 var4) (and (and (and (and (and (and (= var7 (write var10 var4 (O_node (node (next (getnode (read var10 var4))) var6)))) (= var5 var9)) (= var13 var0)) (= var2 var12)) (= var3 var11)) (= var1 var6)) (= var8 var4)))) (inv_main21 var7 var5 var13 var2 var3 var8 var8))))
(assert (forall ((var0 Int) (var1 Addr) (var2 Heap) (var3 Int) (var4 Int) (var5 Addr) (var6 Int) (var7 Int) (var8 Addr) (var9 node) (var10 Int) (var11 Addr) (var12 Heap) (var13 Int) (var14 Int) (var15 Int) (var16 Addr)) (or (not (and (inv_main21 var12 var10 var0 var15 var13 var16 var8) (and (and (not (= nullAddr var11)) (and (and (and (and (and (and (and (and (= var2 (newHeap (alloc var12 (O_node var9)))) (= var4 var10)) (= var7 var0)) (= var6 var15)) (= var3 var13)) (= var5 var16)) (= var1 var8)) (= var14 var13)) (= var11 (newAddr (alloc var12 (O_node var9)))))) (<= 0 (+ (+ var15 (- 1)) (- 1)))))) (inv_main28 var2 var4 var7 var6 var3 var5 var1 var14 var11))))
(assert (forall ((var0 Int) (var1 Int) (var2 Int) (var3 Int) (var4 Int) (var5 Addr) (var6 Addr) (var7 Heap) (var8 Addr) (var9 Addr) (var10 Addr) (var11 Int) (var12 Heap)) (or (not (and (inv_main71 var7 var2 var1 var5 var9 var4) (and (not (= var8 var6)) (and (and (and (and (and (and (= var12 var7) (= var11 var2)) (= var0 var1)) (= var6 var5)) (= var10 var9)) (= var3 var4)) (= var8 (next (getnode (read var7 var9)))))))) (inv_main68 var12 var11 var0 var6 var8 (+ var3 1)))))
(assert (forall ((var0 Int) (var1 Int) (var2 Int) (var3 Addr) (var4 Int) (var5 Int) (var6 Int) (var7 Heap) (var8 Int) (var9 Addr) (var10 Addr) (var11 Heap) (var12 Addr) (var13 Int)) (or (not (and (inv_main66 var11 var8 var0 var9 var6 var5 var10 var3) (and (and (and (and (and (= var7 (write var11 var10 (O_node (node var9 (data (getnode (read var11 var10))))))) (= var1 var8)) (= var13 var0)) (= var12 var9)) (= var4 var6)) (= var2 var5)))) (inv_main68 var7 var1 var13 var12 var12 0))))
(assert (forall ((var0 Int) (var1 Addr) (var2 Int) (var3 Int) (var4 Int) (var5 Int) (var6 Int) (var7 Int) (var8 Addr) (var9 Addr) (var10 Addr) (var11 Heap) (var12 Int) (var13 Heap)) (or (not (and (inv_main58 var11 var7 var0 var9 var6 var5 var10) (and (and (and (and (and (and (= var13 (write var11 var10 (O_node (node var10 (data (getnode (read var11 var10))))))) (= var4 var7)) (= var12 var0)) (= var8 var9)) (= var3 var6)) (= var2 var5)) (= var1 var10)))) (inv_main68 var13 var4 var12 var1 var1 0))))
(assert (forall ((var0 Int) (var1 Int) (var2 Int) (var3 Addr) (var4 Addr) (var5 Heap) (var6 Addr) (var7 Int)) (or (not (inv_main62 var5 var2 var1 var3 var0 var7 var4 var6)) (inv_main66 (write var5 var6 (O_node (node var4 (data (getnode (read var5 var6)))))) var2 var1 var3 var0 var7 var4 var6))))
(assert (forall ((var0 Int) (var1 Int) (var2 Heap) (var3 Int) (var4 Int) (var5 Addr) (var6 Addr) (var7 Int) (var8 Addr)) (or (not (inv_main28 var2 var1 var0 var7 var3 var8 var5 var4 var6)) (inv_main34 (write var2 var6 (O_node (node nullAddr (data (getnode (read var2 var6)))))) var1 var0 var7 var3 var8 var5 var4 var6))))
(assert (forall ((var0 Int) (var1 Int) (var2 Heap) (var3 Int) (var4 Addr) (var5 Int) (var6 Int) (var7 Int)) (or (not (inv_main15 var2 var1 var0 var5 var3 var7 var4 var6)) (inv_main15 var2 var1 var0 var5 var3 var7 var4 var6))))
(assert (forall ((var0 Int) (var1 Heap) (var2 Int) (var3 Addr) (var4 Int) (var5 Heap) (var6 Int) (var7 node) (var8 Int) (var9 Int) (var10 Int)) (or (not (and (inv_main4 var5 var2 var0) (and (= nullAddr var3) (and (and (and (and (and (and (= var1 (newHeap (alloc var5 (O_node var7)))) (= var10 var2)) (= var4 var0)) (= var9 var2)) (= var6 var0)) (= var8 var0)) (= var3 (newAddr (alloc var5 (O_node var7)))))))) (inv_main15 var1 var10 var4 var9 var6 var8 var3 1))))
(assert (forall ((var0 Int) (var1 Int) (var2 Addr) (var3 Int) (var4 Addr) (var5 Int) (var6 Heap) (var7 Int) (var8 Int) (var9 Int) (var10 Int) (var11 Addr) (var12 Int) (var13 Heap) (var14 Int) (var15 Addr)) (or (not (and (inv_main55 var13 var10 var1 var11 var9 var8 var3 var4) (and (= nullAddr var2) (and (and (and (and (and (and (and (= var6 (write var13 var4 (O_node (node (next (getnode (read var13 var4))) var3)))) (= var7 var10)) (= var0 var1)) (= var2 var11)) (= var12 var9)) (= var14 var8)) (= var5 var3)) (= var15 var4))))) (inv_main58 var6 var7 var0 var2 var12 var14 var15))))
(assert (forall ((var0 Int) (var1 Int) (var2 Int) (var3 Int) (var4 Int) (var5 Addr) (var6 Addr) (var7 Heap) (var8 Addr) (var9 Addr) (var10 Addr) (var11 Heap) (var12 Int)) (or (not (and (inv_main71 var7 var2 var1 var5 var9 var4) (and (not (= nullAddr var6)) (and (= (+ var3 1) (+ 1 var12)) (and (= var8 var6) (and (and (and (and (and (and (= var11 var7) (= var12 var2)) (= var0 var1)) (= var6 var5)) (= var10 var9)) (= var3 var4)) (= var8 (next (getnode (read var7 var9)))))))))) (inv_main83 var11 var12 var0 var6 var8 (+ var3 1) var6))))
(assert (forall ((var0 Addr) (var1 Int) (var2 Addr) (var3 Addr) (var4 Addr) (var5 Int) (var6 Int) (var7 Int) (var8 Int) (var9 Int) (var10 Addr) (var11 Addr) (var12 Heap) (var13 Int) (var14 Int) (var15 Heap) (var16 Addr)) (or (not (and (inv_main61 var12 var9 var1 var10 var6 var5 var11 var3) (and (not (= var4 var2)) (and (and (and (and (and (and (and (and (= var15 var12) (= var8 var9)) (= var7 var1)) (= var2 var10)) (= var14 var6)) (= var13 var5)) (= var0 var11)) (= var16 var3)) (= var4 (next (getnode (read var12 var3)))))))) (inv_main63 var15 var8 var7 var2 var14 var13 var0 var16))))
(assert (forall ((var0 Int) (var1 Int) (var2 Heap) (var3 Int) (var4 Addr) (var5 Int) (var6 Int)) (not (and (inv_main12 var2 var1 var0 var5 var3 var6 var4) (not (is-O_node (read var2 var4)))))))
(assert (forall ((var0 Int) (var1 Int) (var2 Heap) (var3 Int) (var4 Addr) (var5 Int) (var6 Int)) (not (and (inv_main18 var2 var1 var0 var5 var3 var6 var4) (not (is-O_node (read var2 var4)))))))
(assert (forall ((var0 Int) (var1 Int) (var2 Heap) (var3 Int) (var4 Int) (var5 Addr) (var6 Addr) (var7 Int) (var8 Addr)) (not (and (inv_main28 var2 var1 var0 var7 var3 var8 var5 var4 var6) (not (is-O_node (read var2 var6)))))))
(assert (forall ((var0 Int) (var1 Int) (var2 Heap) (var3 Int) (var4 Int) (var5 Addr) (var6 Addr) (var7 Int) (var8 Addr)) (not (and (inv_main34 var2 var1 var0 var7 var3 var8 var5 var4 var6) (not (is-O_node (read var2 var6)))))))
(assert (forall ((var0 Int) (var1 Int) (var2 Heap) (var3 Int) (var4 Addr) (var5 Addr) (var6 Int) (var7 Addr)) (not (and (inv_main36 var2 var1 var0 var6 var3 var7 var5 var4) (not (is-O_node (read var2 var4)))))))
(assert (forall ((var0 Int) (var1 Int) (var2 Heap) (var3 Int) (var4 Addr) (var5 Int) (var6 Addr)) (not (and (inv_main22 var2 var1 var0 var5 var3 var6 var4) (not (is-O_node (read var2 var4)))))))
(assert (forall ((var0 Int) (var1 Int) (var2 Int) (var3 Addr) (var4 Int) (var5 Addr) (var6 Heap) (var7 Int)) (not (and (inv_main49 var6 var2 var1 var3 var0 var7 var4 var5) (not (is-O_node (read var6 var5)))))))
(assert (forall ((var0 Int) (var1 Int) (var2 Int) (var3 Addr) (var4 Int) (var5 Addr) (var6 Heap) (var7 Int)) (not (and (inv_main55 var6 var2 var1 var3 var0 var7 var4 var5) (not (is-O_node (read var6 var5)))))))
(assert (forall ((var0 Int) (var1 Int) (var2 Int) (var3 Addr) (var4 Addr) (var5 Heap) (var6 Int)) (not (and (inv_main58 var5 var2 var1 var3 var0 var6 var4) (not (is-O_node (read var5 var4)))))))
(assert (forall ((var0 Int) (var1 Int) (var2 Int) (var3 Addr) (var4 Addr) (var5 Heap) (var6 Addr) (var7 Int)) (not (and (inv_main61 var5 var2 var1 var3 var0 var7 var4 var6) (not (is-O_node (read var5 var6)))))))
(assert (forall ((var0 Int) (var1 Int) (var2 Int) (var3 Addr) (var4 Addr) (var5 Heap) (var6 Addr) (var7 Int)) (not (and (inv_main63 var5 var2 var1 var3 var0 var7 var4 var6) (not (is-O_node (read var5 var6)))))))
(assert (forall ((var0 Int) (var1 Int) (var2 Int) (var3 Addr) (var4 Addr) (var5 Heap) (var6 Addr) (var7 Int)) (not (and (inv_main62 var5 var2 var1 var3 var0 var7 var4 var6) (not (is-O_node (read var5 var6)))))))
(assert (forall ((var0 Int) (var1 Int) (var2 Int) (var3 Addr) (var4 Addr) (var5 Heap) (var6 Addr) (var7 Int)) (not (and (inv_main66 var5 var2 var1 var3 var0 var7 var4 var6) (not (is-O_node (read var5 var4)))))))
(assert (forall ((var0 Int) (var1 Int) (var2 Int) (var3 Addr) (var4 Heap) (var5 Addr)) (not (and (inv_main68 var4 var1 var0 var3 var5 var2) (not (is-O_node (read var4 var5)))))))
(assert (forall ((var0 Int) (var1 Int) (var2 Int) (var3 Addr) (var4 Heap) (var5 Addr)) (not (and (inv_main71 var4 var1 var0 var3 var5 var2) (not (is-O_node (read var4 var5)))))))
(assert (forall ((var0 Int) (var1 Addr) (var2 Int) (var3 Int) (var4 Addr) (var5 Heap) (var6 Addr)) (not (and (inv_main83 var5 var2 var0 var4 var6 var3 var1) (not (is-O_node (read var5 var1)))))))
(assert (forall ((var0 Int) (var1 Addr) (var2 Int) (var3 Addr) (var4 Int) (var5 Addr) (var6 Heap) (var7 Addr)) (not (and (inv_main87 var6 var2 var0 var5 var7 var4 var1 var3) (not (is-O_node (read var6 var3)))))))
(assert (forall ((var0 Int) (var1 Int) (var2 Int) (var3 Addr) (var4 Heap) (var5 Addr)) (not (inv_main90 var4 var1 var0 var3 var5 var2))))
(check-sat)
